proyfinal/src/viki/013/experimentInOfficeAgust.take6.output/60287ace-1cf7-4b43-855b-82ab642d0012.als.dat
{'cnf.clauses': '118081',
 'cnf.totvars': '69608',
 'conflict literals': '127',
 'conflicts': '59',
 'decisions': '9776',
 'memused.mb': '14.24',
 'outcome': 'UNSAT',
 'propagations': '47990',
 'restarts': '1',
 'solver.msecs': 32,
 'task.msecs': 110}
