proyfinal/src/viki/013/experimentInOfficeAgust.take6.output/60287ace-1cf7-4b43-855b-82ab642d0012.als.out
Reading from standard input... Use '--help' for help.
============================[ Problem Statistics ]=============================
|                                                                             |
|  Number of variables:         69608                                         |
|  Number of clauses:          118081                                         |
|  Parse time:                   0.02 s                                       |
|                                                                             |
============================[ Search Statistics ]==============================
| Conflicts |          ORIGINAL         |          LEARNT          | Progress |
|           |    Vars  Clauses Literals |    Limit  Clauses Lit/Cl |          |
===============================================================================
===============================================================================
restarts              : 1
conflicts             : 59             (1824 /sec)
decisions             : 9776           (0.00 % random) (302223 /sec)
propagations          : 47990          (1483600 /sec)
conflict literals     : 127            (3.05 % deleted)
Memory used           : 14.24 MB
CPU time              : 0.032347 s

UNSATISFIABLE
